
Gurobi 11.0.3 (linux64) logging started Sun Nov 24 13:27:49 2024

Set parameter LogFile to value "/home/yihong/Coding/OR_SUC/SUC_results_bigM100000_thread4/case24_ieee_rts_theta0.1_epsilon0.025_gurobi_seed1480000_num_gen100_N_WDR100_load_scaling_factor1_exact_T24quadra_cost.txt"
Set parameter TimeLimit to value 3600
Gurobi Optimizer version 11.0.3 build v11.0.3rc0 (linux64 - "Ubuntu 20.04.6 LTS")

CPU model: AMD EPYC 7532 32-Core Processor, instruction set [SSE2|AVX|AVX2]
Thread count: 64 physical cores, 128 logical processors, using up to 4 threads

Optimize a model with 52043 rows, 29961 columns and 712938 nonzeros
Model fingerprint: 0x2f348584
Model has 2400 quadratic constraints
Variable types: 27461 continuous, 2500 integer (2500 binary)
Coefficient statistics:
  Matrix range     [3e-04, 1e+05]
  QMatrix range    [2e-03, 8e-03]
  QLMatrix range   [1e-02, 6e+01]
  Objective range  [1e+00, 1e+00]
  Bounds range     [1e+00, 1e+00]
  RHS range        [1e+00, 1e+05]
Presolve removed 42101 rows and 12941 columns
Presolve time: 0.26s
Presolved: 9942 rows, 17020 columns, 63439 nonzeros
Presolved model has 2400 quadratic constraint(s)
Variable types: 14551 continuous, 2469 integer (2469 binary)

Root relaxation: objective 3.747829e+04, 7932 iterations, 0.22 seconds (0.30 work units)

    Nodes    |    Current Node    |     Objective Bounds      |     Work
 Expl Unexpl |  Obj  Depth IntInf | Incumbent    BestBd   Gap | It/Node Time

     0     0 37478.2872    0    4          - 37478.2872      -     -    0s
     0     0 286413.020    0  854          - 286413.020      -     -    1s
     0     0 318777.183    0  824          - 318777.183      -     -    1s
     0     0 600177.431    0  871          - 600177.431      -     -    1s
     0     0 600264.667    0  490          - 600264.667      -     -    1s
     0     0 600767.367    0  309          - 600767.367      -     -    1s
     0     0 600770.763    0  314          - 600770.763      -     -    1s
     0     0 600921.873    0  308          - 600921.873      -     -    1s
     0     0 600923.470    0  308          - 600923.470      -     -    2s
     0     2 600924.018    0  308          - 600924.018      -     -    2s
H  511   286                    601270.29849 600956.002  0.05%  11.3    4s
*  511   286             195    601270.29849 600956.002  0.05%  11.3    4s

Cutting planes:
  Gomory: 8
  Implied bound: 452
  MIR: 145
  Flow cover: 241
  PSD: 7

Explored 569 nodes (30285 simplex iterations) in 5.40 seconds (6.32 work units)
Thread count was 4 (of 128 available processors)

Solution count 2: 601270 601270 

Optimal solution found (tolerance 1.00e-03)
Warning: max constraint violation (6.2154e-07) exceeds tolerance
Best objective 6.012702984916e+05, best bound 6.009560015360e+05, gap 0.0523%
